<number of tasks>
45

<cycle time>
69

<task times>
1 9
2 9
3 10
4 10
5 17
6 17
7 13
8 13
9 20
10 20
11 10
12 11
13 6
14 22
15 11
16 19
17 12
18 3
19 7
20 4
21 55
22 14
23 27
24 29
25 26
26 6
27 5
28 24
29 4
30 5
31 7
32 4
33 15
34 3
35 7
36 9
37 4
38 7
39 5
40 4
41 21
42 12
43 6
44 5
45 5

<precedence relations>
1,3
1,7
2,4
2,8
3,5
4,6
5,9
6,10
7,9
7,14
8,10
8,14
9,41
10,41
11,13
12,13
12,37
13,14
13,15
14,17
14,25
14,29
14,30
14,31
14,32
15,16
15,18
15,23
15,24
16,19
17,26
17,27
18,19
19,20
19,33
20,21
21,22
22,28
23,33
24,33
25,26
26,38
27,28
27,33
28,38
29,41
30,41
31,41
32,41
33,34
33,35
33,36
34,38
35,40
36,38
37,43
38,40
39,41
40,41
41,42
42,44
42,45

<setup times forward>
1,3:2
1,4:2
1,6:1
1,8:2
1,10:1
1,16:1
1,18:2
1,19:1
1,20:1
1,21:1
1,23:1
1,24:1
1,37:1
1,39:1
2,3:2
2,4:2
2,5:1
2,8:2
2,9:1
2,16:1
2,18:2
2,19:1
2,20:1
2,21:1
2,23:1
2,24:1
2,37:1
2,39:1
3,2:2
3,5:3
3,6:3
3,7:2
3,10:1
3,11:2
3,12:2
3,13:2
3,15:2
3,16:3
3,17:3
3,19:1
3,20:1
3,21:3
3,22:2
3,23:1
3,24:1
3,25:1
3,26:4
3,27:3
3,28:2
3,29:3
3,30:3
3,33:2
3,34:2
3,35:2
3,36:4
3,37:3
3,38:4
3,39:1
3,40:4
3,43:2
4,1:2
4,5:3
4,6:3
4,7:2
4,9:1
4,11:2
4,12:2
4,13:2
4,15:2
4,16:3
4,17:3
4,19:1
4,20:1
4,21:3
4,22:2
4,23:1
4,24:1
4,25:1
4,26:4
4,27:3
4,28:2
4,29:3
4,30:3
4,33:2
4,34:2
4,35:2
4,36:4
4,37:3
4,38:4
4,39:1
4,40:4
4,43:2
5,2:1
5,4:3
5,7:1
5,8:3
5,9:2
5,10:2
5,11:1
5,12:1
5,13:1
5,14:3
5,15:1
5,18:3
5,19:2
5,20:2
5,22:1
5,23:2
5,24:2
5,25:2
5,26:1
5,28:1
5,31:3
5,32:3
5,33:1
5,34:1
5,35:1
5,36:1
5,38:1
5,39:2
5,40:1
5,43:1
6,1:1
6,3:3
6,7:1
6,8:3
6,9:2
6,10:2
6,11:1
6,12:1
6,13:1
6,14:3
6,15:1
6,18:3
6,19:2
6,20:2
6,22:1
6,23:2
6,24:2
6,25:2
6,26:1
6,28:1
6,31:3
6,32:3
6,33:1
6,34:1
6,35:1
6,36:1
6,38:1
6,39:2
6,40:1
6,43:1
7,3:2
7,4:2
7,5:1
7,6:1
7,8:2
7,9:1
7,10:1
7,14:2
7,16:1
7,18:2
7,19:1
7,20:1
7,21:1
7,23:1
7,24:1
7,37:1
7,39:1
8,1:2
8,5:3
8,6:3
8,7:2
8,9:1
8,10:1
8,11:2
8,12:2
8,13:2
8,15:2
8,16:3
8,19:1
8,20:1
8,21:3
8,22:2
8,23:1
8,24:1
8,37:3
8,39:1
8,43:2
9,2:1
9,4:1
9,6:2
9,8:1
9,11:1
9,12:1
9,13:1
9,14:1
9,15:1
9,16:2
9,17:2
9,18:1
9,21:2
9,22:1
9,26:3
9,27:2
9,28:1
9,29:2
9,30:2
9,31:1
9,32:1
9,33:1
9,34:1
9,35:1
9,36:3
9,37:2
9,38:3
9,40:3
9,41:3
9,43:1
10,1:1
10,3:1
10,5:2
10,7:1
10,11:1
10,12:1
10,13:1
10,14:1
10,15:1
10,16:2
10,17:2
10,18:1
10,21:2
10,22:1
10,26:3
10,27:2
10,28:1
10,29:2
10,30:2
10,31:1
10,32:1
10,33:1
10,34:1
10,35:1
10,36:3
10,37:2
10,38:3
10,40:3
10,41:3
10,43:1
11,3:2
11,4:2
11,5:1
11,6:1
11,8:2
11,9:1
11,10:1
11,37:1
11,39:1
12,3:2
12,4:2
12,5:1
12,6:1
12,8:2
12,9:1
12,10:1
12,37:1
12,39:1
13,3:2
13,4:2
13,5:1
13,6:1
13,8:2
13,9:1
13,10:1
13,14:2
13,37:1
13,39:1
14,5:3
14,6:3
14,9:1
14,10:1
14,15:2
14,16:3
14,17:3
14,19:1
14,20:1
14,21:3
14,22:2
14,23:1
14,24:1
14,25:1
14,29:3
14,30:3
14,37:3
14,39:1
14,43:2
15,3:2
15,4:2
15,5:1
15,6:1
15,8:2
15,9:1
15,10:1
15,14:2
15,16:1
15,17:1
15,18:2
15,23:1
15,24:1
15,25:1
15,26:2
15,27:1
15,29:1
15,30:1
15,31:2
15,32:2
15,37:1
15,39:1
16,1:1
16,2:1
16,3:3
16,4:3
16,7:1
16,8:3
16,9:2
16,10:2
16,14:3
16,18:3
16,19:2
16,23:2
16,24:2
16,25:2
16,26:1
16,31:3
16,32:3
16,39:2
16,43:1
17,3:3
17,4:3
17,9:2
17,10:2
17,15:1
17,18:3
17,19:2
17,20:2
17,22:1
17,23:2
17,24:2
17,25:2
17,26:1
17,31:3
17,32:3
17,39:2
17,43:1
18,1:2
18,2:2
18,5:3
18,6:3
18,7:2
18,9:1
18,10:1
18,16:3
18,17:3
18,19:1
18,23:1
18,24:1
18,25:1
18,26:4
18,27:3
18,29:3
18,30:3
18,37:3
18,39:1
18,43:2
19,1:1
19,2:1
19,3:1
19,4:1
19,5:2
19,6:2
19,7:1
19,8:1
19,14:1
19,17:2
19,26:3
19,27:2
19,29:2
19,30:2
19,31:1
19,32:1
19,33:1
19,37:2
19,43:1
20,1:1
20,2:1
20,3:1
20,4:1
20,5:2
20,6:2
20,7:1
20,8:1
20,14:1
20,17:2
20,21:2
20,26:3
20,27:2
20,29:2
20,30:2
20,31:1
20,32:1
20,33:1
20,34:1
20,35:1
20,36:3
20,37:2
20,43:1
21,1:1
21,2:1
21,3:3
21,4:3
21,7:1
21,8:3
21,9:2
21,10:2
21,14:3
21,22:1
21,23:2
21,24:2
21,25:2
21,26:1
21,31:3
21,32:3
21,33:1
21,34:1
21,35:1
21,36:1
21,39:2
21,43:1
22,3:2
22,4:2
22,5:1
22,6:1
22,8:2
22,9:1
22,10:1
22,14:2
22,17:1
22,23:1
22,24:1
22,25:1
22,26:2
22,27:1
22,29:1
22,30:1
22,31:2
22,32:2
22,36:2
22,37:1
22,39:1
23,1:1
23,2:1
23,3:1
23,4:1
23,5:2
23,6:2
23,7:1
23,8:1
23,14:1
23,16:2
23,17:2
23,18:1
23,21:2
23,22:1
23,26:3
23,27:2
23,28:1
23,29:2
23,30:2
23,31:1
23,32:1
23,33:1
23,37:2
23,43:1
24,1:1
24,2:1
24,3:1
24,4:1
24,5:2
24,6:2
24,7:1
24,8:1
24,14:1
24,16:2
24,17:2
24,18:1
24,21:2
24,22:1
24,26:3
24,27:2
24,28:1
24,29:2
24,30:2
24,31:1
24,32:1
24,33:1
24,37:2
24,43:1
25,3:1
25,4:1
25,5:2
25,6:2
25,15:1
25,16:2
25,17:2
25,18:1
25,21:2
25,22:1
25,26:3
25,27:2
25,28:1
25,29:2
25,30:2
25,31:1
25,32:1
25,33:1
25,34:1
25,35:1
25,36:3
25,37:2
25,43:1
26,3:4
26,4:4
26,5:1
26,6:1
26,9:3
26,10:3
26,15:2
26,16:1
26,18:4
26,19:3
26,20:3
26,21:1
26,22:2
26,23:3
26,24:3
26,27:1
26,28:2
26,29:1
26,30:1
26,31:4
26,32:4
26,33:2
26,34:2
26,35:2
26,37:1
26,39:3
26,43:2
27,3:3
27,4:3
27,9:2
27,10:2
27,15:1
27,18:3
27,19:2
27,20:2
27,22:1
27,23:2
27,24:2
27,25:2
27,26:1
27,28:1
27,31:3
27,32:3
27,33:1
27,39:2
27,43:1
28,3:2
28,4:2
28,5:1
28,6:1
28,9:1
28,10:1
28,23:1
28,24:1
28,25:1
28,26:2
28,29:1
28,30:1
28,31:2
28,32:2
28,36:2
28,37:1
28,38:2
28,39:1
29,3:3
29,4:3
29,9:2
29,10:2
29,15:1
29,18:3
29,19:2
29,20:2
29,22:1
29,23:2
29,24:2
29,25:2
29,26:1
29,28:1
29,31:3
29,32:3
29,33:1
29,34:1
29,35:1
29,36:1
29,38:1
29,39:2
29,40:1
29,41:1
29,43:1
30,3:3
30,4:3
30,9:2
30,10:2
30,15:1
30,18:3
30,19:2
30,20:2
30,22:1
30,23:2
30,24:2
30,25:2
30,26:1
30,28:1
30,31:3
30,32:3
30,33:1
30,34:1
30,35:1
30,36:1
30,38:1
30,39:2
30,40:1
30,41:1
30,43:1
31,5:3
31,6:3
31,9:1
31,10:1
31,15:2
31,16:3
31,17:3
31,19:1
31,20:1
31,21:3
31,22:2
31,23:1
31,24:1
31,25:1
31,26:4
31,27:3
31,28:2
31,29:3
31,30:3
31,33:2
31,34:2
31,35:2
31,36:4
31,37:3
31,38:4
31,39:1
31,40:4
31,41:4
31,43:2
32,5:3
32,6:3
32,9:1
32,10:1
32,15:2
32,16:3
32,17:3
32,19:1
32,20:1
32,21:3
32,22:2
32,23:1
32,24:1
32,25:1
32,26:4
32,27:3
32,28:2
32,29:3
32,30:3
32,33:2
32,34:2
32,35:2
32,36:4
32,37:3
32,38:4
32,39:1
32,40:4
32,41:4
32,43:2
33,3:2
33,4:2
33,5:1
33,6:1
33,9:1
33,10:1
33,20:1
33,21:1
33,25:1
33,26:2
33,29:1
33,30:1
33,31:2
33,32:2
33,36:2
33,37:1
33,39:1
34,3:2
34,4:2
34,5:1
34,6:1
34,9:1
34,10:1
34,20:1
34,21:1
34,25:1
34,26:2
34,29:1
34,30:1
34,31:2
34,32:2
34,36:2
34,37:1
34,38:2
34,39:1
35,3:2
35,4:2
35,5:1
35,6:1
35,9:1
35,10:1
35,20:1
35,21:1
35,25:1
35,26:2
35,29:1
35,30:1
35,31:2
35,32:2
35,36:2
35,37:1
35,38:2
35,39:1
35,40:2
36,3:4
36,4:4
36,5:1
36,6:1
36,9:3
36,10:3
36,20:3
36,21:1
36,22:2
36,25:3
36,28:2
36,29:1
36,30:1
36,31:4
36,32:4
36,34:2
36,35:2
36,37:1
36,39:3
36,43:2
37,1:1
37,2:1
37,3:3
37,4:3
37,7:1
37,8:3
37,9:2
37,10:2
37,11:1
37,13:1
37,14:3
37,15:1
37,18:3
37,19:2
37,20:2
37,22:1
37,23:2
37,24:2
37,25:2
37,26:1
37,28:1
37,31:3
37,32:3
37,33:1
37,34:1
37,35:1
37,36:1
37,38:1
37,39:2
37,40:1
37,41:1
37,42:1
37,43:1
37,44:1
37,45:1
38,3:4
38,4:4
38,5:1
38,6:1
38,9:3
38,10:3
38,29:1
38,30:1
38,31:4
38,32:4
38,35:2
38,37:1
38,39:3
38,43:2
39,1:1
39,2:1
39,3:1
39,4:1
39,5:2
39,6:2
39,7:1
39,8:1
39,11:1
39,12:1
39,13:1
39,14:1
39,15:1
39,16:2
39,17:2
39,18:1
39,21:2
39,22:1
39,26:3
39,27:2
39,28:1
39,29:2
39,30:2
39,31:1
39,32:1
39,33:1
39,34:1
39,35:1
39,36:3
39,37:2
39,38:3
39,40:3
39,41:3
39,43:1
40,3:4
40,4:4
40,5:1
40,6:1
40,9:3
40,10:3
40,29:1
40,30:1
40,31:4
40,32:4
40,37:1
40,39:3
40,43:2
41,37:1
41,43:2
42,37:1
42,43:2
43,3:2
43,4:2
43,5:1
43,6:1
43,8:2
43,9:1
43,10:1
43,14:2
43,16:1
43,17:1
43,18:2
43,19:1
43,20:1
43,21:1
43,23:1
43,24:1
43,25:1
43,26:2
43,27:1
43,29:1
43,30:1
43,31:2
43,32:2
43,36:2
43,38:2
43,39:1
43,40:2
43,41:2
43,42:2
43,44:2
43,45:2
44,37:1
44,43:2
45,37:1
45,43:2

<setup times backward>
1,6:1
1,16:1
1,21:1
1,37:1
2,5:1
2,16:1
2,21:1
2,37:1
3,1:2
3,2:2
3,6:3
3,7:2
3,10:1
3,11:2
3,12:2
3,13:2
3,15:2
3,16:3
3,17:3
3,19:1
3,20:1
3,21:3
3,22:2
3,23:1
3,24:1
3,25:1
3,26:4
3,27:3
3,28:2
3,29:3
3,30:3
3,33:2
3,34:2
3,35:2
3,36:4
3,37:3
3,38:4
3,39:1
3,40:4
3,43:2
4,1:2
4,2:2
4,5:3
4,7:2
4,9:1
4,11:2
4,12:2
4,13:2
4,15:2
4,16:3
4,17:3
4,19:1
4,20:1
4,21:3
4,22:2
4,23:1
4,24:1
4,25:1
4,26:4
4,27:3
4,28:2
4,29:3
4,30:3
4,33:2
4,34:2
4,35:2
4,36:4
4,37:3
4,38:4
4,39:1
4,40:4
4,43:2
5,26:1
5,36:1
5,38:1
5,40:1
6,26:1
6,36:1
6,38:1
6,40:1
7,5:1
7,6:1
7,16:1
7,21:1
7,37:1
8,1:2
8,2:2
8,5:3
8,6:3
8,7:2
8,9:1
8,11:2
8,12:2
8,13:2
8,15:2
8,16:3
8,19:1
8,20:1
8,21:3
8,22:2
8,23:1
8,24:1
8,37:3
8,39:1
8,43:2
9,1:1
9,2:1
9,5:2
9,6:2
9,7:1
9,11:1
9,12:1
9,13:1
9,15:1
9,16:2
9,17:2
9,21:2
9,22:1
9,26:3
9,27:2
9,28:1
9,29:2
9,30:2
9,33:1
9,34:1
9,35:1
9,36:3
9,37:2
9,38:3
9,40:3
9,43:1
10,1:1
10,2:1
10,5:2
10,6:2
10,7:1
10,11:1
10,12:1
10,13:1
10,15:1
10,16:2
10,17:2
10,21:2
10,22:1
10,26:3
10,27:2
10,28:1
10,29:2
10,30:2
10,33:1
10,34:1
10,35:1
10,36:3
10,37:2
10,38:3
10,40:3
10,43:1
11,5:1
11,6:1
11,37:1
12,5:1
12,6:1
13,5:1
13,6:1
13,37:1
14,1:2
14,2:2
14,5:3
14,6:3
14,7:2
14,9:1
14,10:1
14,11:2
14,12:2
14,13:2
14,15:2
14,16:3
14,19:1
14,20:1
14,21:3
14,22:2
14,23:1
14,24:1
14,37:3
14,39:1
14,43:2
15,5:1
15,6:1
15,17:1
15,26:2
15,27:1
15,29:1
15,30:1
15,37:1
16,26:1
18,1:2
18,2:2
18,5:3
18,6:3
18,7:2
18,9:1
18,10:1
18,11:2
18,12:2
18,13:2
18,15:2
18,16:3
18,17:3
18,23:1
18,24:1
18,25:1
18,26:4
18,27:3
18,29:3
18,30:3
18,37:3
18,39:1
18,43:2
19,1:1
19,2:1
19,5:2
19,6:2
19,7:1
19,11:1
19,12:1
19,13:1
19,15:1
19,16:2
19,17:2
19,26:3
19,27:2
19,29:2
19,30:2
19,37:2
19,43:1
20,1:1
20,2:1
20,5:2
20,6:2
20,7:1
20,11:1
20,12:1
20,13:1
20,15:1
20,16:2
20,17:2
20,26:3
20,27:2
20,29:2
20,30:2
20,33:1
20,34:1
20,35:1
20,36:3
20,37:2
20,43:1
21,26:1
21,36:1
22,5:1
22,6:1
22,16:1
22,17:1
22,21:1
22,26:2
22,27:1
22,29:1
22,30:1
22,36:2
22,37:1
23,1:1
23,2:1
23,5:2
23,6:2
23,7:1
23,11:1
23,12:1
23,13:1
23,15:1
23,16:2
23,17:2
23,21:2
23,22:1
23,26:3
23,27:2
23,28:1
23,29:2
23,30:2
23,37:2
23,43:1
24,1:1
24,2:1
24,5:2
24,6:2
24,7:1
24,11:1
24,12:1
24,13:1
24,15:1
24,16:2
24,17:2
24,21:2
24,22:1
24,26:3
24,27:2
24,28:1
24,29:2
24,30:2
24,37:2
24,43:1
25,1:1
25,2:1
25,5:2
25,6:2
25,7:1
25,11:1
25,12:1
25,13:1
25,15:1
25,16:2
25,17:2
25,21:2
25,22:1
25,27:2
25,28:1
25,29:2
25,30:2
25,33:1
25,34:1
25,35:1
25,36:3
25,37:2
25,43:1
27,26:1
28,5:1
28,6:1
28,16:1
28,17:1
28,21:1
28,26:2
28,27:1
28,29:1
28,30:1
28,36:2
28,37:1
29,26:1
29,36:1
29,38:1
29,40:1
30,26:1
30,36:1
30,38:1
30,40:1
31,1:2
31,2:2
31,5:3
31,6:3
31,7:2
31,9:1
31,10:1
31,11:2
31,12:2
31,13:2
31,15:2
31,16:3
31,17:3
31,19:1
31,20:1
31,21:3
31,22:2
31,23:1
31,24:1
31,25:1
31,26:4
31,27:3
31,28:2
31,29:3
31,30:3
31,33:2
31,34:2
31,35:2
31,36:4
31,37:3
31,38:4
31,39:1
31,40:4
31,43:2
32,1:2
32,2:2
32,5:3
32,6:3
32,7:2
32,9:1
32,10:1
32,11:2
32,12:2
32,13:2
32,15:2
32,16:3
32,17:3
32,19:1
32,20:1
32,21:3
32,22:2
32,23:1
32,24:1
32,25:1
32,26:4
32,27:3
32,28:2
32,29:3
32,30:3
32,33:2
32,34:2
32,35:2
32,36:4
32,37:3
32,38:4
32,39:1
32,40:4
32,43:2
33,5:1
33,6:1
33,16:1
33,17:1
33,21:1
33,26:2
33,27:1
33,29:1
33,30:1
33,37:1
34,5:1
34,6:1
34,16:1
34,17:1
34,21:1
34,26:2
34,27:1
34,29:1
34,30:1
34,36:2
34,37:1
35,5:1
35,6:1
35,16:1
35,17:1
35,21:1
35,26:2
35,27:1
35,29:1
35,30:1
35,36:2
35,37:1
35,38:2
37,26:1
37,36:1
37,38:1
37,40:1
37,41:1
37,42:1
37,44:1
37,45:1
39,1:1
39,2:1
39,5:2
39,6:2
39,7:1
39,11:1
39,12:1
39,13:1
39,15:1
39,16:2
39,17:2
39,21:2
39,22:1
39,26:3
39,27:2
39,28:1
39,29:2
39,30:2
39,33:1
39,34:1
39,35:1
39,36:3
39,37:2
39,38:3
39,40:3
39,43:1
43,5:1
43,6:1
43,16:1
43,17:1
43,21:1
43,26:2
43,27:1
43,29:1
43,30:1
43,36:2
43,37:1
43,38:2
43,40:2
43,41:2
43,42:2
43,44:2
43,45:2

<end>

<optimal SALBP-1 value>
8


<rand seed>
467321153

<Lower Bounds>
Lm1=8
Lms1=8
Lm2=1
Lm3=3
Lm4=8
Best=8

<Optimal Stations (Iterations: 10)>
10
